1846040
52,36,61,38,50,34,67,58,15,62,20,37,66,6,54,25,65,10,2,60,23,0,11,41,31,55,39,4,18,48,22,59,28,24,29,40,5,63,33,45,42,53,12,46,19,3,47,1,64,44,26,16,8,57,14,7,35,49,43,13,9,17,56,32,51,21,30,27,52